\ENCODING=ISO-8859-1
\Problem name: ilog.cplex

Minimize
 obj1: 91119 x1 + 109921 x2 + 101473 x3 + 90811 x4 + 108437 x5 + 103056 x6
       + 102177 x7 + 104109 x8 + 94993 x9 + 103133 x10 + 97738 x11 + 102350 x12
       + 93633 x13 + 103241 x14 + 91080 x15 + 101699 x16 + 100428 x17
       + 104051 x18 + 104399 x19 + 90863 x20 + 96360 x21 + 92553 x22
       + 108053 x23 + 93301 x24 + 92730 x25 + 103110 x26 + 99887 x27
       + 95986 x28 + 103319 x29 + 101301 x30 + 99807 x31 + 109873 x32
       + 106336 x33 + 93047 x34 + 109764 x35 + 97107 x36 + 104811 x37
       + 104227 x38 + 100253 x39 + 100463 x40 + 95404 x41 + 99253 x42
       + 101012 x43 + 101651 x44 + 92456 x45 + 91022 x46 + 95833 x47
       + 96839 x48 + 106644 x49 + 99220 x50 + 99095 x51 + 105967 x52
       + 108674 x53 + 108849 x54 + 108662 x55 + 104277 x56 + 96792 x57
       + 104462 x58 + 108687 x59 + 106820 x60 + 90614 x61 + 98584 x62
       + 96882 x63 + 105604 x64 + 109704 x65 + 108693 x66 + 105389 x67
       + 91602 x68 + 107569 x69 + 106481 x70 + 98963 x71 + 102063 x72
       + 99073 x73 + 93766 x74 + 100155 x75 + 105587 x76 + 109539 x77
       + 93590 x78 + 97376 x79 + 97810 x80 + 107655 x81 + 91688 x82
       + 101887 x83 + 99069 x84 + 92310 x85 + 92244 x86 + 90557 x87
       + 109464 x88 + 102080 x89 + 96260 x90 + 102664 x91 + 106446 x92
       + 105353 x93 + 90895 x94 + 91059 x95 + 105400 x96 + 108903 x97
       + 93750 x98 + 100697 x99 + 104646 x100 + 102855 x101 + 104228 x102
       + 106085 x103 + 91094 x104 + 109094 x105 + 101961 x106 + 99964 x107
       + 96235 x108 + 103550 x109 + 90727 x110 + 98521 x111 + 99495 x112
       + 90417 x113 + 106302 x114 + 90948 x115 + 100328 x116 + 93539 x117
       + 100871 x118 + 108736 x119 + 98682 x120 + 100100 x121 + 99903 x122
       + 101740 x123 + 105051 x124 + 97969 x125 + 90226 x126 + 99306 x127
       + 93213 x128 + 98291 x129 + 94025 x130 + 104395 x131 + 90849 x132
       + 106477 x133 + 109613 x134 + 100509 x135 + 102185 x136 + 101959 x137
       + 96537 x138 + 98739 x139 + 96332 x140 + 109912 x141 + 109983 x142
       + 95424 x143 + 95183 x144 + 96603 x145 + 107390 x146 + 109654 x147
       + 95535 x148 + 94088 x149 + 98826 x150 + 91914 x151 + 103952 x152
       + 105380 x153 + 101278 x154 + 91936 x155 + 109889 x156 + 97734 x157
       + 109284 x158 + 98267 x159 + 91291 x160 + 90883 x161 + 95136 x162
       + 109373 x163 + 91509 x164 + 103751 x165 + 95250 x166 + 90362 x167
       + 98590 x168 + 100723 x169 + 109776 x170 + 109442 x171 + 98422 x172
       + 102240 x173 + 97619 x174 + 92607 x175 + 92396 x176 + 90720 x177
       + 108684 x178 + 99521 x179 + 100854 x180 + 101783 x181 + 98929 x182
       + 107773 x183 + 108651 x184 + 97817 x185 + 104180 x186 + 107558 x187
       + 99784 x188 + 108625 x189 + 104578 x190 + 94332 x191 + 94318 x192
       + 92138 x193 + 93139 x194 + 103078 x195 + 102730 x196 + 97172 x197
       + 109116 x198 + 94588 x199 + 90317 x200 + 97447 x201 + 94316 x202
       + 91722 x203 + 109923 x204 + 90221 x205 + 93366 x206 + 100368 x207
       + 90711 x208 + 100487 x209 + 97646 x210 + 109053 x211 + 104495 x212
       + 94175 x213 + 94599 x214 + 93157 x215 + 103397 x216 + 102582 x217
       + 92653 x218 + 98696 x219 + 103713 x220 + 102474 x221 + 93614 x222
       + 94888 x223 + 104488 x224 + 97793 x225 + 98968 x226 + 91398 x227
       + 98818 x228 + 98273 x229 + 100493 x230 + 98930 x231 + 107029 x232
       + 108386 x233 + 100752 x234 + 95293 x235 + 93888 x236 + 93866 x237
       + 104853 x238 + 108145 x239 + 95604 x240 + 102380 x241 + 101278 x242
       + 100330 x243 + 96619 x244 + 99998 x245 + 106627 x246 + 104053 x247
       + 101057 x248 + 105730 x249 + 93521 x250 + 216140 x251 + 200699 x252
       + 194337 x253 + 185198 x254 + 182602 x255 + 219802 x256 + 189490 x257
       + 200704 x258 + 188556 x259 + 217102 x260 + 218877 x261 + 195931 x262
       + 193463 x263 + 189279 x264 + 206576 x265 + 187470 x266 + 217163 x267
       + 191871 x268 + 209393 x269 + 203835 x270 + 211599 x271 + 188184 x272
       + 192345 x273 + 206724 x274 + 219443 x275 + 181601 x276 + 218947 x277
       + 199042 x278 + 192705 x279 + 197076 x280 + 213177 x281 + 199089 x282
       + 192920 x283 + 198294 x284 + 205330 x285 + 192877 x286 + 186699 x287
       + 181367 x288 + 213093 x289 + 182821 x290 + 206432 x291 + 194128 x292
       + 192010 x293 + 191090 x294 + 185653 x295 + 211962 x296 + 216114 x297
       + 189686 x298 + 182030 x299 + 249074 x300
Subject To
 c1:   - x4 - x6 + x15 + x19 - x21 - x22 - x26 + x32 - x49  = 0
 c2:   - x54 - x56 + x65 + x69 - x71 - x72 - x76 + x82 - x99  = 1
 c3:   - x104 - x106 + x115 + x119 - x121 - x122 - x126 + x132 - x149  = 0
 c4:   - x154 - x156 + x165 + x169 - x171 - x172 - x176 + x182 - x199  = 0
 c5:   - x204 - x206 + x215 + x219 - x221 - x222 - x226 + x232 - x249  = 0
 c6:   x5 + x9 - x10 + x14 - x15 - x27 + x28 + x35 - x38 - x45 - x48  = 0
 c7:   x55 + x59 - x60 + x64 - x65 - x77 + x78 + x85 - x88 - x95 - x98  = 0
 c8:   x105 + x109 - x110 + x114 - x115 - x127 + x128 + x135 - x138 - x145
       - x148  = 0
 c9:   x155 + x159 - x160 + x164 - x165 - x177 + x178 + x185 - x188 - x195
       - x198  = 0
 c10:  x205 + x209 - x210 + x214 - x215 - x227 + x228 + x235 - x238 - x245
       - x248  = 0
 c11:  x3 - x13 + x38 - x39 - x46  = 0
 c12:  x53 - x63 + x88 - x89 - x96  = 0
 c13:  x103 - x113 + x138 - x139 - x146  = 0
 c14:  x153 - x163 + x188 - x189 - x196  = 0
 c15:  x203 - x213 + x238 - x239 - x246  = 0
 c16:  x2 + x4 - x9 + x20 - x23 - x29 + x30 - x40 - x41 + x42 + x43 + x48  = -1
 c17:  x52 + x54 - x59 + x70 - x73 - x79 + x80 - x90 - x91 + x92 + x93 + x98
        = 0
 c18:  x102 + x104 - x109 + x120 - x123 - x129 + x130 - x140 - x141 + x142
       + x143 + x148  = 0
 c19:  x152 + x154 - x159 + x170 - x173 - x179 + x180 - x190 - x191 + x192
       + x193 + x198  = 0
 c20:  x202 + x204 - x209 + x220 - x223 - x229 + x230 - x240 - x241 + x242
       + x243 + x248  = 0
 c21:  - x8 + x11 - x24 - x35 - x36 + x40 - x43 + x44  = 0
 c22:  - x58 + x61 - x74 - x85 - x86 + x90 - x93 + x94  = 0
 c23:  - x108 + x111 - x124 - x135 - x136 + x140 - x143 + x144  = 0
 c24:  - x158 + x161 - x174 - x185 - x186 + x190 - x193 + x194  = -1
 c25:  - x208 + x211 - x224 - x235 - x236 + x240 - x243 + x244  = 0
 c26:  x1 - x2 - x7 - x16 - x17 + x24 + x27 - x28 + x46 + x49 + x50  = 0
 c27:  x51 - x52 - x57 - x66 - x67 + x74 + x77 - x78 + x96 + x99 + x100  = 0
 c28:  x101 - x102 - x107 - x116 - x117 + x124 + x127 - x128 + x146 + x149
       + x150  = -1
 c29:  x151 - x152 - x157 - x166 - x167 + x174 + x177 - x178 + x196 + x199
       + x200  = 1
 c30:  x201 - x202 - x207 - x216 - x217 + x224 + x227 - x228 + x246 + x249
       + x250  = -1
 c31:  x8 + x12 + x17 - x25 + x26 - x33 + x41 - x50  = 0
 c32:  x58 + x62 + x67 - x75 + x76 - x83 + x91 - x100  = 0
 c33:  x108 + x112 + x117 - x125 + x126 - x133 + x141 - x150  = 0
 c34:  x158 + x162 + x167 - x175 + x176 - x183 + x191 - x200  = 0
 c35:  x208 + x212 + x217 - x225 + x226 - x233 + x241 - x250  = 0
 c36:  - x3 + x7 - x11 + x13 + x18 - x19 - x20 + x22 + x29 - x31 - x37 + x45
       + x47  = 0
 c37:  - x53 + x57 - x61 + x63 + x68 - x69 - x70 + x72 + x79 - x81 - x87 + x95
       + x97  = -1
 c38:  - x103 + x107 - x111 + x113 + x118 - x119 - x120 + x122 + x129 - x131
       - x137 + x145 + x147  = 0
 c39:  - x153 + x157 - x161 + x163 + x168 - x169 - x170 + x172 + x179 - x181
       - x187 + x195 + x197  = 0
 c40:  - x203 + x207 - x211 + x213 + x218 - x219 - x220 + x222 + x229 - x231
       - x237 + x245 + x247  = 0
 c41:  - x1 - x14 + x21 + x25 - x32 - x34 + x37 - x42 - x44 - x47  = 0
 c42:  - x51 - x64 + x71 + x75 - x82 - x84 + x87 - x92 - x94 - x97  = 0
 c43:  - x101 - x114 + x121 + x125 - x132 - x134 + x137 - x142 - x144 - x147
        = 1
 c44:  - x151 - x164 + x171 + x175 - x182 - x184 + x187 - x192 - x194 - x197
        = 0
 c45:  - x201 - x214 + x221 + x225 - x232 - x234 + x237 - x242 - x244 - x247
        = 0
 c46:  - x5 + x6 + x10 - x12 + x16 - x18 + x23 - x30 + x31 + x33 + x34 + x36
       + x39  = 1
 c47:  - x55 + x56 + x60 - x62 + x66 - x68 + x73 - x80 + x81 + x83 + x84 + x86
       + x89  = 0
 c48:  - x105 + x106 + x110 - x112 + x116 - x118 + x123 - x130 + x131 + x133
       + x134 + x136 + x139  = 0
 c49:  - x155 + x156 + x160 - x162 + x166 - x168 + x173 - x180 + x181 + x183
       + x184 + x186 + x189  = 0
 c50:  - x205 + x206 + x210 - x212 + x216 - x218 + x223 - x230 + x231 + x233
       + x234 + x236 + x239  = 1
 c51:  4 x1 + 4 x51 + 4 x101 + 4 x151 + 4 x201 - 2 x251 <= 0
 c52:  4 x2 + 4 x52 + 4 x102 + 4 x152 + 4 x202 - 2 x252 <= 0
 c53:  4 x3 + 4 x53 + 4 x103 + 4 x153 + 4 x203 - 2 x253 <= 0
 c54:  4 x4 + 4 x54 + 4 x104 + 4 x154 + 4 x204 - 2 x254 <= 0
 c55:  4 x5 + 4 x55 + 4 x105 + 4 x155 + 4 x205 - 2 x255 <= 0
 c56:  4 x6 + 4 x56 + 4 x106 + 4 x156 + 4 x206 - 2 x256 <= 0
 c57:  4 x7 + 4 x57 + 4 x107 + 4 x157 + 4 x207 - 2 x257 <= 0
 c58:  4 x8 + 4 x58 + 4 x108 + 4 x158 + 4 x208 - 2 x258 <= 0
 c59:  4 x9 + 4 x59 + 4 x109 + 4 x159 + 4 x209 - 2 x259 <= 0
 c60:  4 x10 + 4 x60 + 4 x110 + 4 x160 + 4 x210 - 2 x260 <= 0
 c61:  4 x11 + 4 x61 + 4 x111 + 4 x161 + 4 x211 - 2 x261 <= 0
 c62:  4 x12 + 4 x62 + 4 x112 + 4 x162 + 4 x212 - 2 x262 <= 0
 c63:  4 x13 + 4 x63 + 4 x113 + 4 x163 + 4 x213 - 2 x263 <= 0
 c64:  4 x14 + 4 x64 + 4 x114 + 4 x164 + 4 x214 - 2 x264 <= 0
 c65:  4 x15 + 4 x65 + 4 x115 + 4 x165 + 4 x215 - 2 x265 <= 0
 c66:  4 x16 + 4 x66 + 4 x116 + 4 x166 + 4 x216 - 2 x266 <= 0
 c67:  4 x17 + 4 x67 + 4 x117 + 4 x167 + 4 x217 - 2 x267 <= 0
 c68:  4 x18 + 4 x68 + 4 x118 + 4 x168 + 4 x218 - 2 x268 <= 0
 c69:  4 x19 + 4 x69 + 4 x119 + 4 x169 + 4 x219 - 2 x269 <= 0
 c70:  4 x20 + 4 x70 + 4 x120 + 4 x170 + 4 x220 - 2 x270 <= 0
 c71:  4 x21 + 4 x71 + 4 x121 + 4 x171 + 4 x221 - 2 x271 <= 0
 c72:  4 x22 + 4 x72 + 4 x122 + 4 x172 + 4 x222 - 2 x272 <= 0
 c73:  4 x23 + 4 x73 + 4 x123 + 4 x173 + 4 x223 - 2 x273 <= 0
 c74:  4 x24 + 4 x74 + 4 x124 + 4 x174 + 4 x224 - 2 x274 <= 0
 c75:  4 x25 + 4 x75 + 4 x125 + 4 x175 + 4 x225 - 2 x275 <= 0
 c76:  4 x26 + 4 x76 + 4 x126 + 4 x176 + 4 x226 - 2 x276 <= 0
 c77:  4 x27 + 4 x77 + 4 x127 + 4 x177 + 4 x227 - 2 x277 <= 0
 c78:  4 x28 + 4 x78 + 4 x128 + 4 x178 + 4 x228 - 2 x278 <= 0
 c79:  4 x29 + 4 x79 + 4 x129 + 4 x179 + 4 x229 - 2 x279 <= 0
 c80:  4 x30 + 4 x80 + 4 x130 + 4 x180 + 4 x230 - 2 x280 <= 0
 c81:  4 x31 + 4 x81 + 4 x131 + 4 x181 + 4 x231 - 2 x281 <= 0
 c82:  4 x32 + 4 x82 + 4 x132 + 4 x182 + 4 x232 - 2 x282 <= 0
 c83:  4 x33 + 4 x83 + 4 x133 + 4 x183 + 4 x233 - 2 x283 <= 0
 c84:  4 x34 + 4 x84 + 4 x134 + 4 x184 + 4 x234 - 2 x284 <= 0
 c85:  4 x35 + 4 x85 + 4 x135 + 4 x185 + 4 x235 - 2 x285 <= 0
 c86:  4 x36 + 4 x86 + 4 x136 + 4 x186 + 4 x236 - 2 x286 <= 0
 c87:  4 x37 + 4 x87 + 4 x137 + 4 x187 + 4 x237 - 2 x287 <= 0
 c88:  4 x38 + 4 x88 + 4 x138 + 4 x188 + 4 x238 - 2 x288 <= 0
 c89:  4 x39 + 4 x89 + 4 x139 + 4 x189 + 4 x239 - 2 x289 <= 0
 c90:  4 x40 + 4 x90 + 4 x140 + 4 x190 + 4 x240 - 2 x290 <= 0
 c91:  4 x41 + 4 x91 + 4 x141 + 4 x191 + 4 x241 - 2 x291 <= 0
 c92:  4 x42 + 4 x92 + 4 x142 + 4 x192 + 4 x242 - 2 x292 <= 0
 c93:  4 x43 + 4 x93 + 4 x143 + 4 x193 + 4 x243 - 2 x293 <= 0
 c94:  4 x44 + 4 x94 + 4 x144 + 4 x194 + 4 x244 - 2 x294 <= 0
 c95:  4 x45 + 4 x95 + 4 x145 + 4 x195 + 4 x245 - 2 x295 <= 0
 c96:  4 x46 + 4 x96 + 4 x146 + 4 x196 + 4 x246 - 2 x296 <= 0
 c97:  4 x47 + 4 x97 + 4 x147 + 4 x197 + 4 x247 - 2 x297 <= 0
 c98:  4 x48 + 4 x98 + 4 x148 + 4 x198 + 4 x248 - 2 x298 <= 0
 c99:  4 x49 + 4 x99 + 4 x149 + 4 x199 + 4 x249 - 2 x299 <= 0
 c100: 4 x50 + 4 x100 + 4 x150 + 4 x200 + 4 x250 - 2 x300 <= 0
Bounds
 0 <= x1 <= 1
 0 <= x2 <= 1
 0 <= x3 <= 1
 0 <= x4 <= 1
 0 <= x5 <= 1
 0 <= x6 <= 1
 0 <= x7 <= 1
 0 <= x8 <= 1
 0 <= x9 <= 1
 0 <= x10 <= 1
 0 <= x11 <= 1
 0 <= x12 <= 1
 0 <= x13 <= 1
 0 <= x14 <= 1
 0 <= x15 <= 1
 0 <= x16 <= 1
 0 <= x17 <= 1
 0 <= x18 <= 1
 0 <= x19 <= 1
 0 <= x20 <= 1
 0 <= x21 <= 1
 0 <= x22 <= 1
 0 <= x23 <= 1
 0 <= x24 <= 1
 0 <= x25 <= 1
 0 <= x26 <= 1
 0 <= x27 <= 1
 0 <= x28 <= 1
 0 <= x29 <= 1
 0 <= x30 <= 1
 0 <= x31 <= 1
 0 <= x32 <= 1
 0 <= x33 <= 1
 0 <= x34 <= 1
 0 <= x35 <= 1
 0 <= x36 <= 1
 0 <= x37 <= 1
 0 <= x38 <= 1
 0 <= x39 <= 1
 0 <= x40 <= 1
 0 <= x41 <= 1
 0 <= x42 <= 1
 0 <= x43 <= 1
 0 <= x44 <= 1
 0 <= x45 <= 1
 0 <= x46 <= 1
 0 <= x47 <= 1
 0 <= x48 <= 1
 0 <= x49 <= 1
 0 <= x50 <= 1
 0 <= x51 <= 1
 0 <= x52 <= 1
 0 <= x53 <= 1
 0 <= x54 <= 1
 0 <= x55 <= 1
 0 <= x56 <= 1
 0 <= x57 <= 1
 0 <= x58 <= 1
 0 <= x59 <= 1
 0 <= x60 <= 1
 0 <= x61 <= 1
 0 <= x62 <= 1
 0 <= x63 <= 1
 0 <= x64 <= 1
 0 <= x65 <= 1
 0 <= x66 <= 1
 0 <= x67 <= 1
 0 <= x68 <= 1
 0 <= x69 <= 1
 0 <= x70 <= 1
 0 <= x71 <= 1
 0 <= x72 <= 1
 0 <= x73 <= 1
 0 <= x74 <= 1
 0 <= x75 <= 1
 0 <= x76 <= 1
 0 <= x77 <= 1
 0 <= x78 <= 1
 0 <= x79 <= 1
 0 <= x80 <= 1
 0 <= x81 <= 1
 0 <= x82 <= 1
 0 <= x83 <= 1
 0 <= x84 <= 1
 0 <= x85 <= 1
 0 <= x86 <= 1
 0 <= x87 <= 1
 0 <= x88 <= 1
 0 <= x89 <= 1
 0 <= x90 <= 1
 0 <= x91 <= 1
 0 <= x92 <= 1
 0 <= x93 <= 1
 0 <= x94 <= 1
 0 <= x95 <= 1
 0 <= x96 <= 1
 0 <= x97 <= 1
 0 <= x98 <= 1
 0 <= x99 <= 1
 0 <= x100 <= 1
 0 <= x101 <= 1
 0 <= x102 <= 1
 0 <= x103 <= 1
 0 <= x104 <= 1
 0 <= x105 <= 1
 0 <= x106 <= 1
 0 <= x107 <= 1
 0 <= x108 <= 1
 0 <= x109 <= 1
 0 <= x110 <= 1
 0 <= x111 <= 1
 0 <= x112 <= 1
 0 <= x113 <= 1
 0 <= x114 <= 1
 0 <= x115 <= 1
 0 <= x116 <= 1
 0 <= x117 <= 1
 0 <= x118 <= 1
 0 <= x119 <= 1
 0 <= x120 <= 1
 0 <= x121 <= 1
 0 <= x122 <= 1
 0 <= x123 <= 1
 0 <= x124 <= 1
 0 <= x125 <= 1
 0 <= x126 <= 1
 0 <= x127 <= 1
 0 <= x128 <= 1
 0 <= x129 <= 1
 0 <= x130 <= 1
 0 <= x131 <= 1
 0 <= x132 <= 1
 0 <= x133 <= 1
 0 <= x134 <= 1
 0 <= x135 <= 1
 0 <= x136 <= 1
 0 <= x137 <= 1
 0 <= x138 <= 1
 0 <= x139 <= 1
 0 <= x140 <= 1
 0 <= x141 <= 1
 0 <= x142 <= 1
 0 <= x143 <= 1
 0 <= x144 <= 1
 0 <= x145 <= 1
 0 <= x146 <= 1
 0 <= x147 <= 1
 0 <= x148 <= 1
 0 <= x149 <= 1
 0 <= x150 <= 1
 0 <= x151 <= 1
 0 <= x152 <= 1
 0 <= x153 <= 1
 0 <= x154 <= 1
 0 <= x155 <= 1
 0 <= x156 <= 1
 0 <= x157 <= 1
 0 <= x158 <= 1
 0 <= x159 <= 1
 0 <= x160 <= 1
 0 <= x161 <= 1
 0 <= x162 <= 1
 0 <= x163 <= 1
 0 <= x164 <= 1
 0 <= x165 <= 1
 0 <= x166 <= 1
 0 <= x167 <= 1
 0 <= x168 <= 1
 0 <= x169 <= 1
 0 <= x170 <= 1
 0 <= x171 <= 1
 0 <= x172 <= 1
 0 <= x173 <= 1
 0 <= x174 <= 1
 0 <= x175 <= 1
 0 <= x176 <= 1
 0 <= x177 <= 1
 0 <= x178 <= 1
 0 <= x179 <= 1
 0 <= x180 <= 1
 0 <= x181 <= 1
 0 <= x182 <= 1
 0 <= x183 <= 1
 0 <= x184 <= 1
 0 <= x185 <= 1
 0 <= x186 <= 1
 0 <= x187 <= 1
 0 <= x188 <= 1
 0 <= x189 <= 1
 0 <= x190 <= 1
 0 <= x191 <= 1
 0 <= x192 <= 1
 0 <= x193 <= 1
 0 <= x194 <= 1
 0 <= x195 <= 1
 0 <= x196 <= 1
 0 <= x197 <= 1
 0 <= x198 <= 1
 0 <= x199 <= 1
 0 <= x200 <= 1
 0 <= x201 <= 1
 0 <= x202 <= 1
 0 <= x203 <= 1
 0 <= x204 <= 1
 0 <= x205 <= 1
 0 <= x206 <= 1
 0 <= x207 <= 1
 0 <= x208 <= 1
 0 <= x209 <= 1
 0 <= x210 <= 1
 0 <= x211 <= 1
 0 <= x212 <= 1
 0 <= x213 <= 1
 0 <= x214 <= 1
 0 <= x215 <= 1
 0 <= x216 <= 1
 0 <= x217 <= 1
 0 <= x218 <= 1
 0 <= x219 <= 1
 0 <= x220 <= 1
 0 <= x221 <= 1
 0 <= x222 <= 1
 0 <= x223 <= 1
 0 <= x224 <= 1
 0 <= x225 <= 1
 0 <= x226 <= 1
 0 <= x227 <= 1
 0 <= x228 <= 1
 0 <= x229 <= 1
 0 <= x230 <= 1
 0 <= x231 <= 1
 0 <= x232 <= 1
 0 <= x233 <= 1
 0 <= x234 <= 1
 0 <= x235 <= 1
 0 <= x236 <= 1
 0 <= x237 <= 1
 0 <= x238 <= 1
 0 <= x239 <= 1
 0 <= x240 <= 1
 0 <= x241 <= 1
 0 <= x242 <= 1
 0 <= x243 <= 1
 0 <= x244 <= 1
 0 <= x245 <= 1
 0 <= x246 <= 1
 0 <= x247 <= 1
 0 <= x248 <= 1
 0 <= x249 <= 1
 0 <= x250 <= 1
 0 <= x251 <= 1
 0 <= x252 <= 1
 0 <= x253 <= 1
 0 <= x254 <= 1
 0 <= x255 <= 1
 0 <= x256 <= 1
 0 <= x257 <= 1
 0 <= x258 <= 1
 0 <= x259 <= 1
 0 <= x260 <= 1
 0 <= x261 <= 1
 0 <= x262 <= 1
 0 <= x263 <= 1
 0 <= x264 <= 1
 0 <= x265 <= 1
 0 <= x266 <= 1
 0 <= x267 <= 1
 0 <= x268 <= 1
 0 <= x269 <= 1
 0 <= x270 <= 1
 0 <= x271 <= 1
 0 <= x272 <= 1
 0 <= x273 <= 1
 0 <= x274 <= 1
 0 <= x275 <= 1
 0 <= x276 <= 1
 0 <= x277 <= 1
 0 <= x278 <= 1
 0 <= x279 <= 1
 0 <= x280 <= 1
 0 <= x281 <= 1
 0 <= x282 <= 1
 0 <= x283 <= 1
 0 <= x284 <= 1
 0 <= x285 <= 1
 0 <= x286 <= 1
 0 <= x287 <= 1
 0 <= x288 <= 1
 0 <= x289 <= 1
 0 <= x290 <= 1
 0 <= x291 <= 1
 0 <= x292 <= 1
 0 <= x293 <= 1
 0 <= x294 <= 1
 0 <= x295 <= 1
 0 <= x296 <= 1
 0 <= x297 <= 1
 0 <= x298 <= 1
 0 <= x299 <= 1
 0 <= x300 <= 1
Binaries
 x251  x252  x253  x254  x255  x256  x257  x258  x259  x260  x261  x262  x263 
 x264  x265  x266  x267  x268  x269  x270  x271  x272  x273  x274  x275  x276 
 x277  x278  x279  x280  x281  x282  x283  x284  x285  x286  x287  x288  x289 
 x290  x291  x292  x293  x294  x295  x296  x297  x298  x299  x300 
End
